69 177
72 131
106 140
65 56
92 1
198 116
43 168
128 41
21 61
114 138
62 105
10 106
180 84
20 76
150 109
35 169
200 33
182 120
180 115
6 63
86 189
191 47
33 98
71 190
44 178
78 114
97 62
176 161
160 65
47 90